200
1000
165
165
165
165
164
164
164
163
163
163
162
162
161
160
160
159
159
157
157
157
156
156
156
156
155
155
154
154
154
154
152
152
152
151
151
150
150
149
148
147
147
147
147
146
146
146
146
146
144
144
144
143
143
142
142
142
141
140
139
138
136
135
135
135
134
134
134
134
133
133
133
133
133
132
132
131
129
128
127
126
125
123
122
120
119
119
119
119
117
116
116
116
116
116
116
114
114
113
113
113
112
110
110
109
108
108
108
107
105
105
104
102
100
100
100
100
100
100
99
99
99
98
97
97
96
96
96
96
95
94
93
92
90
90
89
89
88
88
88
88
88
88
87
87
86
86
85
85
85
85
84
83
83
83
83
82
81
80
80
80
79
79
79
78
78
77
77
76
76
74
74
72
72
71
71
70
70
70
70
69
68
68
68
68
67
67
67
67
64
63
62
62
61
61
61
61
61
60
58
58
